\ Model Portfolio Optimization Problem with Carbon Emission Constraints
\ LP format - for model browsing. Use MPS format to capture full model detail.
Minimize
  2 x[0,0] + 2 x[0,1] + 2 x[0,2] + 2 x[0,3] + 2 x[1,0] + 2 x[1,1] + 2 x[1,2]
   + 2 x[1,3] + 2 x[2,0] + 2 x[2,1] + 2 x[2,2] + 2 x[2,3] + 2 x[3,0]
   + 2 x[3,1] + 2 x[3,2] + 2 x[3,3] + 2 x[4,0] + 2 x[4,1] + 2 x[4,2]
   + 2 x[4,3]
Subject To
 supply_0: x[0,0] + x[0,1] + x[0,2] + x[0,3] <= 20
 supply_1: x[1,0] + x[1,1] + x[1,2] + x[1,3] <= 20
 supply_2: x[2,0] + x[2,1] + x[2,2] + x[2,3] <= 20
 supply_3: x[3,0] + x[3,1] + x[3,2] + x[3,3] <= 20
 supply_4: x[4,0] + x[4,1] + x[4,2] + x[4,3] <= 20
 demand_0: x[0,0] + x[1,0] + x[2,0] + x[3,0] + x[4,0] >= 1
 demand_1: x[0,1] + x[1,1] + x[2,1] + x[3,1] + x[4,1] >= 1
 demand_2: x[0,2] + x[1,2] + x[2,2] + x[3,2] + x[4,2] >= 1
 demand_3: x[0,3] + x[1,3] + x[2,3] + x[3,3] + x[4,3] >= 1
 emission_limit: 6.005852777678322 x[0,0] + 3.539530541230212 x[0,1]
   + 4.270170355116669 x[0,2] + 6.235766490991699 x[0,3]
   + 0.538539135890728 x[1,0] + 7.665300707809157 x[1,1]
   + 9.860389407801309 x[1,2] + 0.5294216729653878 x[1,3]
   + 5.00587538863318 x[2,0] + 3.225512887083355 x[2,1]
   + 8.609968008559317 x[2,2] + 5.249641179551609 x[2,3]
   + 0.5345087803879593 x[3,0] + 5.125485855827406 x[3,1]
   + 2.787458254027255 x[3,2] + 8.527896351163401 x[3,3]
   + 3.591568720016062 x[4,0] + 2.593086322018391 x[4,1]
   + 9.871799392453687 x[4,2] + 9.772812484935532 x[4,3] <= 1e+06
Bounds
End
